c
c start with comments
c
p cnf 40 30
-4 -35 0
33 23 0
24 -16 25 7 0
-25 -28 -20 0
27 6 0
3 7 39 -12 0
4 30 -12 0
4 32 38 -16 0
38 16 8 0
-13 7 -1 10 38 0
-14 30 16 0
19 13 0
-22 18 8 18 30 0
-31 9 12 0
-36 1 -31 15 0
40 28 0
29 -28 -27 0
-11 -7 0
2 -6 0
-36 31 -21 0
-30 -31 -20 0
32 -16 -41 -39 0
18 20 3 17 0
15 -12 -26 0
-34 -32 0
-19 -3 0
11 -24 0
-20 -21 12 -37 25 0
36 22 0
37 14 0